Route #1: 17 57 47 46 1 18 4 23
Route #2: 22 6 37 52 62 43 31 41
Route #3: 26 54 5 2 30 13 20
Route #4: 11 15 12 44 33
Route #5: 25 60 59 27 45 29 19
Route #6: 24 8 34 61 56
Route #7: 49 36 48 3 10 28
Route #8: 7 51 39 9 42 38 16
Route #9: 35 50 14 40 58 32 55 21 53
cost 1906.8134765625